N = 6;
H = 6;
T = 2;

avail = array3d(1..N, 1..H, 1..T, [7, 1, 0, 8, 6, 8, 6, 1, 3, 4, 9, 6, 0, 1, 6, 4, 3, 7, 8, 3, 8, 5, 9, 4, 9, 5, 6, 4, 8, 3, 9, 9, 0, 5, 2, 10, 7, 5, 1, 5, 7, 6, 7, 7, 5, 10, 2, 4, 3, 9, 4, 2, 8, 6, 4, 9, 9, 1, 3, 6, 0, 8, 0, 4, 3, 6, 2, 8, 10, 9, 3, 4]);

r = array2d(1..H, 1..T, [1, 3, 1, 2, 2, 0, 2, 3, 1, 0, 2, 1]);
